     Program CP v.6.7MaX starts on 25Jun2022 at 19:57:55

     R & G space division:  proc/nbgrp/npool/nimage =      60
     Waiting for input...
     Reading input from standard input

   Job Title: MD Simulation

   Atomic Pseudopotentials Parameters

   Reading pseudopotential for specie #  1 from file :
   ./C.UPF
   file type is UPF v.1
     file C.UPF: wavefunction(s)  3d renormalized

   Main Simulation Parameters (from input)
   Restart Mode       =       1   restart
   Number of MD Steps =     100
   Print out every            5 MD Steps
   Reads from unit    =      68
   Writes to unit     =      69
   MD Simulation time step            =       2.00
   Electronic fictitious mass (emass) =     100.00
   emass cut-off                      =      25.00

   Simulation Cell Parameters (from input)
   external pressure       =            0.00 [KBar]
   wmass (calculated)      =       163048.20 [AU]
   initial cell from CELL_PARAMETERS card
      17.27876146    0.00000000    0.00000000
      -8.63938073   14.96384637    0.00000000
       0.00000000    0.00000000   15.00000000
   ibrav =    0
   alat  =    32.65212694
   a1    =    32.65212694    0.00000000    0.00000000
   a2    =   -16.32606347   28.27757141    0.00000000
   a3    =     0.00000000    0.00000000   28.34589187

   b1    =     0.03062588    0.01768186   -0.00000000
   b2    =     0.00000000    0.03536372    0.00000000
   b3    =     0.00000000   -0.00000000    0.03527848
   omega =   26172.40970235

   Energy Cut-offs
   Ecutwfc =   85.0 Ry,      Ecutrho =  340.0 Ry,      Ecuts =  340.0 Ry
   Gcutwfc =   47.9     ,    Gcutrho =   95.8          Gcuts =   95.8
   NOTA BENE: refg, mmx =   0.050000  8160
   Eigenvalues calculated without the kinetic term contribution
   Orthog. with lagrange multipliers : eps =   0.10E-08,  max = 800
   Electron dynamics with newton equations
   Electron dynamics : the temperature is not controlled

   Electronic states
   Number of Electrons=   392, of States =   196
   Occupation numbers :
   2.00 2.00 2.00 2.00 2.00 2.00 2.00 2.00 2.00 2.00
   2.00 2.00 2.00 2.00 2.00 2.00 2.00 2.00 2.00 2.00
   2.00 2.00 2.00 2.00 2.00 2.00 2.00 2.00 2.00 2.00
   2.00 2.00 2.00 2.00 2.00 2.00 2.00 2.00 2.00 2.00
   2.00 2.00 2.00 2.00 2.00 2.00 2.00 2.00 2.00 2.00
   2.00 2.00 2.00 2.00 2.00 2.00 2.00 2.00 2.00 2.00
   2.00 2.00 2.00 2.00 2.00 2.00 2.00 2.00 2.00 2.00
   2.00 2.00 2.00 2.00 2.00 2.00 2.00 2.00 2.00 2.00
   2.00 2.00 2.00 2.00 2.00 2.00 2.00 2.00 2.00 2.00
   2.00 2.00 2.00 2.00 2.00 2.00 2.00 2.00 2.00 2.00
   2.00 2.00 2.00 2.00 2.00 2.00 2.00 2.00 2.00 2.00
   2.00 2.00 2.00 2.00 2.00 2.00 2.00 2.00 2.00 2.00
   2.00 2.00 2.00 2.00 2.00 2.00 2.00 2.00 2.00 2.00
   2.00 2.00 2.00 2.00 2.00 2.00 2.00 2.00 2.00 2.00
   2.00 2.00 2.00 2.00 2.00 2.00 2.00 2.00 2.00 2.00
   2.00 2.00 2.00 2.00 2.00 2.00 2.00 2.00 2.00 2.00
   2.00 2.00 2.00 2.00 2.00 2.00 2.00 2.00 2.00 2.00
   2.00 2.00 2.00 2.00 2.00 2.00 2.00 2.00 2.00 2.00
   2.00 2.00 2.00 2.00 2.00 2.00 2.00 2.00 2.00 2.00
   2.00 2.00 2.00 2.00 2.00 2.00

   Exchange and correlations functionals
     Exchange-correlation=  SLA  PZ   NOGX NOGC
                           (   1   1   0   0   0   0   0)

   Ions Simulation Parameters
   Ions are allowed to move
   Ions dynamics with newton equations
   the temperature is computed for   291 degrees of freedom
   ion dynamics with fricp =  0.0000 and greasp =  1.0000
   Ionic position (from input)
   sorted by specie, and converted to real a.u. coordinates
   Species   1 atoms =   98 mass =     21894.17 (a.u.),        12.01 (amu) rcmax =   0.50 (a.u.)
       -2.318013     4.039646    14.185334
        2.332307     4.039646    14.172946
        6.996896     4.039646    14.172946
       11.661486     4.039646    14.172946
       16.326075     4.039646    14.172946
       20.990665     4.039646    14.172946
       25.655254     4.039646    14.172946
       -4.664578     8.079299    14.172946
        0.000012     8.079299    14.172946
        4.664601     8.079299    14.172946
        9.329191     8.079299    14.172946
       13.993780     8.079299    14.172946
       18.658370     8.079299    14.172946
       23.322960     8.079299    14.172946
       -6.996873    12.118952    14.172946
       -2.332283    12.118952    14.172946
        2.332307    12.118952    14.172946
        6.996896    12.118952    14.172946
       11.661486    12.118952    14.172946
       16.326075    12.118952    14.172946
       20.990665    12.118952    14.172946
       -9.329167    16.158605    14.172946
       -4.664578    16.158605    14.172946
        0.000012    16.158605    14.172946
        4.664601    16.158605    14.172946
        9.329191    16.158605    14.172946
       13.993780    16.158605    14.172946
       18.658370    16.158605    14.172946
      -11.661462    20.198259    14.172946
       -6.996873    20.198259    14.172946
       -2.332283    20.198259    14.172946
        2.332307    20.198259    14.172946
        6.996896    20.198259    14.172946
       11.661486    20.198259    14.172946
       16.326075    20.198259    14.172946
      -13.993757    24.237912    14.172946
       -9.329167    24.237912    14.172946
       -4.664578    24.237912    14.172946
        0.000012    24.237912    14.172946
        4.664601    24.237912    14.172946
        9.329191    24.237912    14.172946
       13.993780    24.237912    14.172946
      -16.326052    28.277565    14.172946
      -11.661462    28.277565    14.172946
       -6.996873    28.277565    14.172946
       -2.332283    28.277565    14.172946
        2.332307    28.277565    14.172946
        6.996896    28.277565    14.172946
       11.661486    28.277565    14.172946
        2.332307     1.346544    14.172946
        6.996896     1.346544    14.172946
       11.661486     1.346544    14.172946
       16.326075     1.346544    14.172946
       20.990665     1.346544    14.172946
       25.655254     1.346544    14.172946
       30.319844     1.346544    14.172946
        0.000012     5.386198    14.172946
        4.664601     5.386198    14.172946
        9.329191     5.386198    14.172946
       13.993780     5.386198    14.172946
[...]
       20.990665    17.505157    14.172946
       -9.329167    21.544810    14.172946
       -4.664578    21.544810    14.172946
        0.000012    21.544810    14.172946
        4.664601    21.544810    14.172946
        9.329191    21.544810    14.172946
       13.993780    21.544810    14.172946
       18.658370    21.544810    14.172946
      -11.661462    25.584463    14.172946
       -6.996873    25.584463    14.172946
       -2.332283    25.584463    14.172946
        2.332307    25.584463    14.172946
        6.996896    25.584463    14.172946
       11.661486    25.584463    14.172946
       16.326075    25.584463    14.172946
   Ionic position will be re-read from restart file

   All atoms are allowed to move
   Ionic temperature control via nose thermostat

   ion dynamics with nose` temperature control:
   temperature required      =  300.00000 (kelvin)
   NH chain length           =   1
   active degrees of freedom =    291
   time steps per nose osc.  =    344

   nose` frequency(es)       =      60.000

   the requested type of NH chains is     0
   total number of thermostats used     1 0 0
   ionic degrees of freedom for each chain  294

   nose` mass(es) for chain    1 =    6649.271

   atom i (in sorted order) is assigned to this thermostat :
   1   1   1   1   1   1   1   1   1   1   1   1   1   1   1   1   1   1   1   1
   1   1   1   1   1   1   1   1   1   1   1   1   1   1   1   1   1   1   1   1
   1   1   1   1   1   1   1   1   1   1   1   1   1   1   1   1   1   1   1   1
   1   1   1   1   1   1   1   1   1   1   1   1   1   1   1   1   1   1   1   1
   1   1   1   1   1   1   1   1   1   1   1   1   1   1   1   1   1   1

   Cell Dynamics Parameters (from STDIN)
   internal stress tensor calculated
   Starting cell generated from CELLDM
   Cell parameters will be re-read from restart file
   Constant VOLUME Molecular dynamics
   cell parameters are not allowed to move

   Verbosity: iverbosity =  0

   Simulation dimensions initialization

   unit vectors of full simulation cell
   in real space:                         in reciprocal space (units 2pi/alat):
   1    32.6521    0.0000    0.0000              1.0000    0.5774   -0.0000
   2   -16.3261   28.2776    0.0000              0.0000    1.1547    0.0000
   3     0.0000    0.0000   28.3459              0.0000   -0.0000    1.1519

   Real Mesh
   .X.   .Y.   .Z.     .X.   .Y.   .Z.     .X.   .Y.   .Z.
   192   192   180     192   192     3       1     1    60
   Array leading dimensions ( nr1x, nr2x, nr3x )   =    192   192   180
   Local number of cell to store the grid ( nrxx ) =     110592
  | 192,   3  | 192,   3  | 192,   3  | 192,   3  | 192,   3
  | 192,   3  | 192,   3  | 192,   3  | 192,   3  | 192,   3
  | 192,   3  | 192,   3  | 192,   3  | 192,   3  | 192,   3
  | 192,   3  | 192,   3  | 192,   3  | 192,   3  | 192,   3
  | 192,   3  | 192,   3  | 192,   3  | 192,   3  | 192,   3
  | 192,   3  | 192,   3  | 192,   3  | 192,   3  | 192,   3
  | 192,   3  | 192,   3  | 192,   3  | 192,   3  | 192,   3
  | 192,   3  | 192,   3  | 192,   3  | 192,   3  | 192,   3
  | 192,   3  | 192,   3  | 192,   3  | 192,   3  | 192,   3
  | 192,   3  | 192,   3  | 192,   3  | 192,   3  | 192,   3
  | 192,   3  | 192,   3  | 192,   3  | 192,   3  | 192,   3
  | 192,   3  | 192,   3  | 192,   3  | 192,   3  | 192,   3

   Smooth Real Mesh
   .X.   .Y.   .Z.     .X.   .Y.   .Z.     .X.   .Y.   .Z.
   192   192   180     192   192     3       1     1    60
   Array leading dimensions ( nr1x, nr2x, nr3x )   =    192   192   180
   Local number of cell to store the grid ( nrxx ) =     110592
  | 192,   3  | 192,   3  | 192,   3  | 192,   3  | 192,   3
  | 192,   3  | 192,   3  | 192,   3  | 192,   3  | 192,   3
  | 192,   3  | 192,   3  | 192,   3  | 192,   3  | 192,   3
  | 192,   3  | 192,   3  | 192,   3  | 192,   3  | 192,   3
  | 192,   3  | 192,   3  | 192,   3  | 192,   3  | 192,   3
  | 192,   3  | 192,   3  | 192,   3  | 192,   3  | 192,   3
  | 192,   3  | 192,   3  | 192,   3  | 192,   3  | 192,   3
  | 192,   3  | 192,   3  | 192,   3  | 192,   3  | 192,   3
  | 192,   3  | 192,   3  | 192,   3  | 192,   3  | 192,   3
  | 192,   3  | 192,   3  | 192,   3  | 192,   3  | 192,   3
  | 192,   3  | 192,   3  | 192,   3  | 192,   3  | 192,   3
  | 192,   3  | 192,   3  | 192,   3  | 192,   3  | 192,   3

   Reciprocal Space Mesh
   Large Mesh
     Global(ngm_g)    MinLocal       MaxLocal      Average
        1385103          23082          23088       23085.05
   Smooth Mesh
     Global(ngms_g)   MinLocal       MaxLocal      Average
        1385103          23082          23088       23085.05
   Wave function Mesh
     Global(ngw_g)    MinLocal       MaxLocal      Average
         173178           2879           2890        2886.30

   System geometry initialization
   cell parameters read from restart file
   ibrav =    0       cell parameters

   cell at current step : h(t)
      32.65213     -16.32606       0.00000
[...]
   C       0.16326071228044E+02     0.20198255247619E+02     0.14172945211472E+02
   C      -0.13993774938214E+02     0.24237886148654E+02     0.14172943297674E+02
   C      -0.93291701794015E+01     0.24237912595076E+02     0.14172945193683E+02
   C      -0.46645707324344E+01     0.24237907249969E+02     0.14172946023855E+02
   C       0.20809044033001E-04     0.24237919542876E+02     0.14172946015431E+02
   C       0.46646012125514E+01     0.24237911047228E+02     0.14172945210282E+02
   C       0.93291671292045E+01     0.24237929212121E+02     0.14172943159278E+02
   C       0.13993794728792E+02     0.24237910885745E+02     0.14172954909147E+02
   C      -0.16326116194897E+02     0.28277136154029E+02     0.14172885039987E+02
   C      -0.11661417694424E+02     0.28277549998054E+02     0.14172954946907E+02
   C      -0.69968582024041E+01     0.28277550076413E+02     0.14172945197116E+02
   C      -0.23322845851141E+01     0.28277564994710E+02     0.14172946046200E+02
   C       0.23323196864585E+01     0.28277580404367E+02     0.14172945216544E+02
   C       0.69969432414423E+01     0.28277584418037E+02     0.14172954777881E+02
   C       0.11661428787683E+02     0.28277983182161E+02     0.14172888957738E+02
   C       0.23323041268881E+01     0.13466937278051E+01     0.14173000024986E+02
   C       0.69968743650660E+01     0.13465455779849E+01     0.14172945017383E+02
   C       0.11661482719873E+02     0.13465393180750E+01     0.14172945394330E+02
   C       0.16326074108082E+02     0.13465479880850E+01     0.14172945380907E+02
   C       0.20990642714791E+02     0.13465449517299E+01     0.14172945032076E+02
   C       0.25655242663681E+02     0.13463989748969E+01     0.14173000235428E+02
   C       0.30321440536090E+02     0.13465488071579E+01     0.14173910642446E+02
   C       0.30348733356869E-02     0.53870243973582E+01     0.14173900043309E+02
   C       0.46646287804385E+01     0.53860952220799E+01     0.14172875280969E+02
   C       0.93291987336966E+01     0.53862025045442E+01     0.14172949138619E+02
   C       0.13993773055524E+02     0.53862004009967E+01     0.14172946968409E+02
[...]
   C       0.20990660214089E+02     0.17505160592004E+02     0.14172946971251E+02
   C      -0.93291662142510E+01     0.21544811289417E+02     0.14172945389438E+02
   C      -0.46645763662103E+01     0.21544813831061E+02     0.14172945908344E+02
   C       0.13705886748910E-04     0.21544801550354E+02     0.14172945902674E+02
   C       0.46646028533053E+01     0.21544808631854E+02     0.14172945389522E+02
   C       0.93291942823330E+01     0.21544810415389E+02     0.14172949095925E+02
   C       0.13993775475344E+02     0.21544810208628E+02     0.14172955080871E+02
   C       0.18658379844537E+02     0.21544816195372E+02     0.14172949171128E+02
   C      -0.11661451805484E+02     0.25584480974127E+02     0.14172944996505E+02
   C      -0.69968728728147E+01     0.25584476065587E+02     0.14172946373554E+02
   C      -0.23322879302472E+01     0.25584463938411E+02     0.14172945907428E+02
   C       0.23323024588832E+01     0.25584451364285E+02     0.14172946369959E+02
   C       0.69969048815090E+01     0.25584441447285E+02     0.14172945047360E+02
   C       0.11661570255564E+02     0.25584529520814E+02     0.14172875462182E+02
   C       0.16326157088896E+02     0.25584405096534E+02     0.14172875046159E+02

   ATOMIC_VELOCITIES
   C      -0.10989172528979E-03    -0.62606127488226E-06    -0.30132822535423E-04
   C       0.94152141458517E-05    -0.62034650219991E-06    -0.67524277431297E-06
   C       0.19067555988496E-06     0.17215519001186E-07    -0.47448804564261E-07
   C       0.65711077759071E-07     0.46350063045195E-07     0.31190318093028E-08
   C       0.10548714077996E-06    -0.35286104613926E-07     0.29685709140908E-08
   C       0.27644981695060E-06    -0.45825576440604E-07    -0.49467529021903E-07
   C       0.92238875080443E-05     0.56872295985031E-06    -0.61220526249925E-06
   C      -0.27078521942208E-07    -0.58953516669972E-05    -0.63556694778818E-06
   C      -0.27365001828967E-07     0.59417812513003E-05    -0.65172072483082E-06
   C       0.43611700611229E-06     0.18528603931406E-06     0.10544177541989E-06
   C       0.13165647770215E-06    -0.15968483084535E-06    -0.81691913892649E-08
   C      -0.10488288122902E-07    -0.31369021419567E-07     0.11704994103512E-08
   C       0.13869038102268E-06     0.13309133687788E-06    -0.81249264991421E-08
   C       0.44345056638042E-06    -0.11609782286447E-06     0.10603471842395E-06
   C      -0.16758918865114E-06    -0.26194568720492E-06    -0.48509126194648E-07
   C       0.25965580232372E-06     0.14458915684519E-08     0.10485105421632E-06
   C      -0.17260042035072E-06     0.22010593830015E-06    -0.48341143444418E-07
   C      -0.84661666212926E-07     0.26134320216762E-06    -0.81460312434664E-08
   C       0.12783856553072E-06     0.80555759422555E-07     0.96428973310474E-09
   C       0.13123646742584E-06    -0.13247669278524E-06     0.93442602816305E-09
   C      -0.33180950658194E-07    -0.28554645244680E-06    -0.81841551053759E-08
   C       0.62805908907783E-07    -0.40825192210933E-07     0.29594406043841E-08
   C      -0.55429250765737E-07    -0.26526604721744E-06    -0.81956850225454E-08
   C      -0.68935363643176E-07     0.28458787551940E-06    -0.81618710129904E-08
   C       0.53919663448854E-07     0.72986238106672E-07     0.31001535860014E-08
   C      -0.67106720478655E-08    -0.41817482418870E-07     0.11766243100554E-08
   C      -0.33112144408573E-07    -0.29457919622323E-07     0.89428020193249E-09
   C       0.68973549685075E-07    -0.29753386550453E-07     0.12032678204577E-08
   C       0.29699188104691E-08    -0.68488551583162E-07     0.30721096489487E-08
   C      -0.77098659319184E-08    -0.28134470180544E-08     0.12168094741132E-08
   C       0.29990621460871E-07     0.22453737869243E-08     0.93083212426470E-09
   C      -0.34360618371760E-07    -0.33157332612178E-08     0.12238839889674E-08
   C       0.98032557076473E-08     0.84398159041554E-07     0.29624169043944E-08
   C       0.14015910426104E-07    -0.63406403946051E-07    -0.80916333224200E-08
   C      -0.32356733571798E-07    -0.44766499136500E-07    -0.81596948443864E-08
   C      -0.12181738469339E-06    -0.28951562858333E-06    -0.47639401451247E-07
   C      -0.40629533084761E-07     0.21406189573884E-07    -0.83211852796052E-08
   C       0.63388311140991E-07    -0.39110272517460E-07     0.10276755609232E-08
   C       0.87364940003333E-07     0.83698939583339E-07     0.90526411005966E-09
   C      -0.88554609626016E-08    -0.13495480864468E-07    -0.80851056033647E-08
   C      -0.19920579406216E-06     0.19511675876966E-06    -0.49281647166893E-07
   C       0.22043341309630E-06    -0.76407489552526E-08     0.10573107681614E-06
   C       0.43108263298363E-07    -0.49052840471767E-05    -0.66631499540988E-06
   C       0.39266090977726E-06    -0.61835521809624E-07     0.10600346373343E-06
   C       0.13936693248824E-06    -0.14244942917512E-06    -0.83072136634978E-08
   C      -0.27525359753820E-07     0.48190907290366E-08     0.11821717304554E-08
   C       0.12423927607736E-06     0.15884927527151E-06    -0.80476024923694E-08
   C       0.42219878889462E-06     0.12881141690047E-06     0.10376980132143E-06
   C       0.11659692688450E-06     0.47796791321788E-05    -0.62042580706173E-06
   C       0.11245249933767E-06     0.13286062860398E-05     0.66221241052684E-06
   C      -0.17339711896848E-06     0.82054790740557E-08    -0.10065010312933E-07
   C      -0.21905062925747E-07    -0.58920233333930E-07    -0.72143317201107E-08
   C       0.15426820368765E-08     0.41440771219314E-07    -0.73034134100727E-08
   C      -0.17577210012088E-06     0.10929635629396E-07    -0.99042389731969E-08
   C       0.83947552693320E-08    -0.12923316064030E-05     0.66525980107190E-06
   C       0.17764335311289E-04     0.20233310816999E-07     0.12241741705869E-04
   C       0.33907190660728E-04     0.93373121944372E-05     0.12122931516651E-04
   C       0.93496919199057E-06    -0.10737767013683E-05    -0.91191723968177E-06
   C       0.12348407753918E-06     0.53374390984156E-07     0.41158220619104E-07
   C      -0.68158142074078E-07     0.35780614657733E-07     0.13276589868158E-07
[...]
   C      -0.61005535737716E-07     0.27627740058522E-07     0.13218743593174E-07
   C       0.10493649100982E-07     0.12860146677781E-07    -0.72221099886945E-08
   C       0.12381132271813E-07     0.36976593765509E-07    -0.32785482723498E-09
   C       0.20487275538651E-07    -0.85595128250562E-07    -0.34929394309095E-09
   C       0.15930444312463E-07    -0.70199315441497E-08    -0.72526243412991E-08
   C       0.25927470084319E-07     0.42321488290888E-07     0.40534598043572E-07
   C      -0.79350354214521E-07     0.44352791438730E-08     0.12015579388554E-06
   C       0.10829631606058E-06     0.44627746828523E-07     0.41541074449386E-07
   C       0.10521961730844E-06     0.14758073810507E-06    -0.10295390331382E-07
   C       0.14551367673544E-07     0.13297911127736E-06     0.55138290425642E-08
   C      -0.41718030299445E-07     0.15954517947994E-07    -0.31645787192160E-09
   C      -0.32545589338102E-07    -0.10813556492485E-06     0.54741143589204E-08
   C       0.86729001159488E-07    -0.19026053551631E-06    -0.97101429864764E-08
   C       0.92521764078338E-06     0.10464569691278E-05    -0.90892494648433E-06
   C       0.89044691282272E-06    -0.93142953516985E-06    -0.91460930304117E-06

   Forces acting on atoms (au):
   C      -0.12040922649868E-02     0.58084080853293E-04    -0.13868506422494E-02
   C       0.32047395022920E-03    -0.11553142573021E-04     0.22200587791495E-04
   C      -0.10511500893186E-04     0.12412702671721E-05    -0.85226587847902E-05
   C      -0.20265528137905E-04     0.14336953087381E-04     0.70942106231296E-06
   C       0.55138561285827E-05    -0.80869915708104E-05     0.67376019095278E-06
   C       0.47701792682607E-04    -0.20600951642517E-04    -0.86013246112998E-05
   C       0.30473384942758E-03    -0.29763478563394E-04     0.23975393130604E-04
   C       0.37705590522001E-03     0.19200094236480E-04     0.23817441507863E-04
   C       0.35850720617542E-03    -0.42782885852989E-04     0.22400105307779E-04
   C      -0.55137917572775E-04    -0.72868090888548E-05     0.26051078919530E-06
   C      -0.61371222845605E-05    -0.10249791035093E-04     0.20710833758182E-06
   C      -0.17148557273051E-04    -0.24372913054812E-04    -0.89112559765688E-07
   C       0.61403076473773E-06    -0.22175726789466E-04     0.22624370703954E-06
   C      -0.46765541261748E-04     0.32941346890525E-04     0.23615039951612E-06
   C       0.54923785003895E-04    -0.83774854312145E-05    -0.86717807100657E-05
   C       0.47494633923279E-04     0.53990401543484E-05     0.13645147857954E-06
   C       0.45116515363191E-04    -0.12197854188950E-04    -0.85415925774070E-05
   C      -0.27533428387208E-04    -0.13415910120313E-04     0.22665362330075E-06
   C       0.19658042430264E-04     0.44925174188289E-05    -0.31909932439061E-07
   C       0.18785065901523E-04    -0.40764061697892E-04     0.32162538035689E-07
   C       0.34985599188369E-05    -0.18779128670362E-05     0.20449664318442E-06
   C       0.37253503191956E-04    -0.22131371095896E-04     0.73109514431768E-06
   C       0.38151137171656E-05     0.55065943657665E-05     0.21952224451441E-06
   C      -0.28027644914522E-05     0.58317950756067E-06     0.21839969248801E-06
   C       0.28101919037464E-04     0.32487663851590E-04     0.67253921123123E-06
   C       0.16794589649418E-04    -0.44528100053486E-04    -0.66952431955685E-07
   C      -0.28477738703633E-05    -0.21929910299815E-04     0.32119512830911E-07
   C       0.57537027781942E-04    -0.10724005082533E-04    -0.11073041275549E-06
   C      -0.80591673429073E-05     0.46768109238342E-05     0.72796943968145E-06
   C       0.18464168891962E-04     0.15089771931082E-04    -0.99943559940298E-07
   C       0.23197970819948E-04     0.71454170370488E-05    -0.20825632939565E-07
   C       0.61964087801678E-05    -0.13726350948964E-04    -0.96469773194096E-07
   C      -0.59723937188622E-05    -0.10799692239326E-05     0.73440777556997E-06
   C       0.55125051189760E-04    -0.59962299570372E-06     0.20307518750917E-06
   C       0.28209372849213E-04    -0.67801011513962E-04     0.17561247757500E-06
   C       0.81799533967697E-04    -0.26898392471121E-05    -0.85842842587668E-05
   C      -0.30373164044227E-05    -0.10858278601098E-04     0.23143231576676E-06
   C      -0.25463277214989E-04     0.11787144685790E-04    -0.61608683284880E-07
   C      -0.10958346537524E-04     0.10695493639756E-04    -0.44615954296462E-07
   C       0.19142394985034E-04     0.84301179301541E-05     0.25815501141466E-06
   C       0.41034630308940E-04    -0.57673408345006E-04    -0.86451710729798E-05
   C       0.16193696028361E-04    -0.12482451051183E-04     0.27337535945402E-06
   C       0.37355830068683E-03    -0.10083562359899E-04     0.22957876727467E-04
   C      -0.77105777753193E-04     0.73008285918828E-04     0.13356943634375E-06
   C      -0.11071742360782E-04     0.25533282242780E-04     0.21365022932666E-06
   C      -0.16705034770941E-04    -0.27347758996339E-05    -0.48826485836046E-07
   C      -0.21554003301713E-04    -0.25537183070399E-04     0.19952796416245E-06
   C      -0.59551220865493E-04    -0.51966541622624E-04     0.44217429765881E-07
   C       0.40700959020796E-03    -0.63236536692591E-04     0.23302039709065E-04
   C       0.10691869958127E-03    -0.19616441041536E-03     0.15589532024825E-04
   C       0.45534571850830E-04    -0.50383980840963E-06     0.31388285948026E-06
   C       0.58255034575049E-05    -0.17266720644363E-04    -0.47675111179394E-06
   C       0.16080265249307E-04     0.13464943016650E-04    -0.41957698710712E-06
   C       0.44191386200697E-04     0.19242283738163E-04     0.31059195969759E-06
   C       0.54354407330475E-04     0.23103774533084E-03     0.15844772519200E-04
   C      -0.41787515867972E-03    -0.16213094851839E-04     0.49238801086605E-03
   C      -0.61308232719247E-03    -0.12629477922504E-03     0.49378917329876E-03
   C       0.31307053263764E-03     0.14747156490355E-04    -0.43659762262999E-04
   C       0.51346966588157E-04     0.63461790625630E-05     0.18725123743774E-05
   C       0.49080782460419E-05     0.18309144062619E-04     0.60502906787092E-06
[...]
   C      -0.48638743645717E-04    -0.12654044771342E-04     0.53889902520062E-06
   C       0.24607782168641E-05     0.11585406949977E-04    -0.45311107161983E-06
   C      -0.23345243441584E-04    -0.15385899608831E-04    -0.16591737941770E-07
   C      -0.20127481154667E-04    -0.96469298343479E-05     0.41048064792109E-08
   C      -0.18484125427134E-06    -0.51594582004739E-05    -0.48589604032410E-06
   C      -0.34688036000571E-04     0.68791309516835E-04     0.17915649851289E-05
   C      -0.63325067882855E-04     0.88160724297378E-05     0.66854181982031E-05
   C       0.93573986767438E-05    -0.10917592007461E-04     0.18720722266978E-05
   C      -0.29977463097898E-04    -0.57197931127998E-04     0.32959779113323E-06
   C       0.22953371271938E-04    -0.20554805057697E-04     0.18427105385352E-06
   C       0.18861492411197E-04     0.47618974235569E-05    -0.30405724533892E-07
   C      -0.86533707653355E-05     0.23284045607316E-04     0.18579521835521E-06
   C      -0.40840942501565E-04     0.32927996230076E-04     0.34291519054181E-06
   C      -0.16510525802567E-04     0.14832433829455E-03    -0.43214319606863E-04
   C      -0.37978623275224E-04    -0.76853571192687E-04    -0.43627528156310E-04

   Partial temperatures (for each ionic specie)
   Species  Temp (K)   Mean Square Displacement (a.u.)
        1   3.88E-01     1.1965E-06
    292    0.000002588890596    0.0    0.39    -560.706618026140    -560.706618026140    -560.706437630829    -560.706548718697   0.0000   0.0000  -0.0083  -0.8231

   writing restart file (with schema): ./out/graphene_69.save/

   Averaged Physical Quantities
                      accumulated      this run
   ekinc         :       23.02104       0.00000 (AU)
   ekin          :      415.41874     403.01817 (AU)
   epot          :     -957.27473    -975.07236 (AU)
   total energy  :     -530.79810    -560.70658 (AU)
   temperature   :        0.03499       0.10218 (K )
   enthalpy      :     -530.79810    -560.70658 (AU)
   econs         :     -530.79808    -560.70653 (AU)
   pressure      :       12.64153      -2.58076 (Gpa)
   volume        :    26172.40970   26172.40970 (AU)

     Small boxes:

     Low-level routines:

   This run was terminated on:   0: 6: 2  26Jun2022

   JOB DONE.