     Program CP v.6.7MaX starts on 25Jun2022 at 11:56:32

     R & G space division:  proc/nbgrp/npool/nimage =      60
     Waiting for input...
     Reading input from standard input

   Job Title: MD Simulation

   Atomic Pseudopotentials Parameters

   Reading pseudopotential for specie #  1 from file :
   ./C.UPF
   file type is UPF v.1
     file C.UPF: wavefunction(s)  3d renormalized

   Main Simulation Parameters (from input)
   Restart Mode       =      -1   from_scratch
   Number of MD Steps =    1000
   Print out every            1 MD Steps
   Reads from unit    =      68
   Writes to unit     =      68
   MD Simulation time step            =       2.00
   Electronic fictitious mass (emass) =     100.00
   emass cut-off                      =      25.00

   Simulation Cell Parameters (from input)
   external pressure       =            0.00 [KBar]
   wmass (calculated)      =       163048.20 [AU]
   initial cell from CELL_PARAMETERS card
      17.27876146    0.00000000    0.00000000
      -8.63938073   14.96384637    0.00000000
       0.00000000    0.00000000   15.00000000
   ibrav =    0
   alat  =    32.65212694
   a1    =    32.65212694    0.00000000    0.00000000
   a2    =   -16.32606347   28.27757141    0.00000000
   a3    =     0.00000000    0.00000000   28.34589187

   b1    =     0.03062588    0.01768186   -0.00000000
   b2    =     0.00000000    0.03536372    0.00000000
   b3    =     0.00000000   -0.00000000    0.03527848
   omega =   26172.40970235

   Energy Cut-offs
   Ecutwfc =   85.0 Ry,      Ecutrho =  340.0 Ry,      Ecuts =  340.0 Ry
   Gcutwfc =   47.9     ,    Gcutrho =   95.8          Gcuts =   95.8
   NOTA BENE: refg, mmx =   0.050000  8160
   Eigenvalues calculated without the kinetic term contribution
   Orthog. with lagrange multipliers : eps =   0.10E-08,  max = ***
   verlet algorithm for electron dynamics
   with friction frice =  0.1000 , grease =  1.0000
   Electron dynamics : the temperature is not controlled
   initial random displacement of el. coordinates with  amplitude=  0.020000

   Electronic states
   Number of Electrons=   392, of States =   196
   Occupation numbers :
   2.00 2.00 2.00 2.00 2.00 2.00 2.00 2.00 2.00 2.00
   2.00 2.00 2.00 2.00 2.00 2.00 2.00 2.00 2.00 2.00
   2.00 2.00 2.00 2.00 2.00 2.00 2.00 2.00 2.00 2.00
   2.00 2.00 2.00 2.00 2.00 2.00 2.00 2.00 2.00 2.00
   2.00 2.00 2.00 2.00 2.00 2.00 2.00 2.00 2.00 2.00
   2.00 2.00 2.00 2.00 2.00 2.00 2.00 2.00 2.00 2.00
   2.00 2.00 2.00 2.00 2.00 2.00 2.00 2.00 2.00 2.00
   2.00 2.00 2.00 2.00 2.00 2.00 2.00 2.00 2.00 2.00
   2.00 2.00 2.00 2.00 2.00 2.00 2.00 2.00 2.00 2.00
   2.00 2.00 2.00 2.00 2.00 2.00 2.00 2.00 2.00 2.00
   2.00 2.00 2.00 2.00 2.00 2.00 2.00 2.00 2.00 2.00
   2.00 2.00 2.00 2.00 2.00 2.00 2.00 2.00 2.00 2.00
   2.00 2.00 2.00 2.00 2.00 2.00 2.00 2.00 2.00 2.00
   2.00 2.00 2.00 2.00 2.00 2.00 2.00 2.00 2.00 2.00
   2.00 2.00 2.00 2.00 2.00 2.00 2.00 2.00 2.00 2.00
   2.00 2.00 2.00 2.00 2.00 2.00 2.00 2.00 2.00 2.00
   2.00 2.00 2.00 2.00 2.00 2.00 2.00 2.00 2.00 2.00
   2.00 2.00 2.00 2.00 2.00 2.00 2.00 2.00 2.00 2.00
   2.00 2.00 2.00 2.00 2.00 2.00 2.00 2.00 2.00 2.00
   2.00 2.00 2.00 2.00 2.00 2.00

   Exchange and correlations functionals
     Exchange-correlation=  SLA  PZ   NOGX NOGC
                           (   1   1   0   0   0   0   0)

   Ions Simulation Parameters
   Ions are not allowed to move
   Ionic position (from input)
   sorted by specie, and converted to real a.u. coordinates
   Species   1 atoms =   98 mass =     21894.17 (a.u.),        12.01 (amu) rcmax =   0.50 (a.u.)
       -2.318013     4.039646    14.185334
        2.332307     4.039646    14.172946
        6.996896     4.039646    14.172946
       11.661486     4.039646    14.172946
       16.326075     4.039646    14.172946
       20.990665     4.039646    14.172946
       25.655254     4.039646    14.172946
       -4.664578     8.079299    14.172946
        0.000012     8.079299    14.172946
        4.664601     8.079299    14.172946
        9.329191     8.079299    14.172946
       13.993780     8.079299    14.172946
       18.658370     8.079299    14.172946
       23.322960     8.079299    14.172946
       -6.996873    12.118952    14.172946
       -2.332283    12.118952    14.172946
        2.332307    12.118952    14.172946
        6.996896    12.118952    14.172946
       11.661486    12.118952    14.172946
       16.326075    12.118952    14.172946
       20.990665    12.118952    14.172946
       -9.329167    16.158605    14.172946
       -4.664578    16.158605    14.172946
        0.000012    16.158605    14.172946
        4.664601    16.158605    14.172946
        9.329191    16.158605    14.172946
       13.993780    16.158605    14.172946
       18.658370    16.158605    14.172946
      -11.661462    20.198259    14.172946
       -6.996873    20.198259    14.172946
       -2.332283    20.198259    14.172946
        2.332307    20.198259    14.172946
        6.996896    20.198259    14.172946
       11.661486    20.198259    14.172946
       16.326075    20.198259    14.172946
      -13.993757    24.237912    14.172946
       -9.329167    24.237912    14.172946
       -4.664578    24.237912    14.172946
        0.000012    24.237912    14.172946
        4.664601    24.237912    14.172946
        9.329191    24.237912    14.172946
       13.993780    24.237912    14.172946
      -16.326052    28.277565    14.172946
      -11.661462    28.277565    14.172946
       -6.996873    28.277565    14.172946
       -2.332283    28.277565    14.172946
        2.332307    28.277565    14.172946
        6.996896    28.277565    14.172946
       11.661486    28.277565    14.172946
        2.332307     1.346544    14.172946
        6.996896     1.346544    14.172946
       11.661486     1.346544    14.172946
       16.326075     1.346544    14.172946
       20.990665     1.346544    14.172946
       25.655254     1.346544    14.172946
       30.319844     1.346544    14.172946
        0.000012     5.386198    14.172946
        4.664601     5.386198    14.172946
        9.329191     5.386198    14.172946
       13.993780     5.386198    14.172946
[...]
       20.990665    17.505157    14.172946
       -9.329167    21.544810    14.172946
       -4.664578    21.544810    14.172946
        0.000012    21.544810    14.172946
        4.664601    21.544810    14.172946
        9.329191    21.544810    14.172946
       13.993780    21.544810    14.172946
       18.658370    21.544810    14.172946
      -11.661462    25.584463    14.172946
       -6.996873    25.584463    14.172946
       -2.332283    25.584463    14.172946
        2.332307    25.584463    14.172946
        6.996896    25.584463    14.172946
       11.661486    25.584463    14.172946
       16.326075    25.584463    14.172946
   Ionic position read from input file

   Cell Dynamics Parameters (from STDIN)
   internal stress tensor calculated
   Starting cell generated from CELLDM
   Constant VOLUME Molecular dynamics
   cell parameters are not allowed to move

   Verbosity: iverbosity =  0

   Simulation dimensions initialization

   unit vectors of full simulation cell
   in real space:                         in reciprocal space (units 2pi/alat):
   1    32.6521    0.0000    0.0000              1.0000    0.5774   -0.0000
   2   -16.3261   28.2776    0.0000              0.0000    1.1547    0.0000
   3     0.0000    0.0000   28.3459              0.0000   -0.0000    1.1519

   Real Mesh
   .X.   .Y.   .Z.     .X.   .Y.   .Z.     .X.   .Y.   .Z.
   192   192   180     192   192     3       1     1    60
   Array leading dimensions ( nr1x, nr2x, nr3x )   =    192   192   180
   Local number of cell to store the grid ( nrxx ) =     110592
  | 192,   3  | 192,   3  | 192,   3  | 192,   3  | 192,   3
  | 192,   3  | 192,   3  | 192,   3  | 192,   3  | 192,   3
  | 192,   3  | 192,   3  | 192,   3  | 192,   3  | 192,   3
  | 192,   3  | 192,   3  | 192,   3  | 192,   3  | 192,   3
  | 192,   3  | 192,   3  | 192,   3  | 192,   3  | 192,   3
  | 192,   3  | 192,   3  | 192,   3  | 192,   3  | 192,   3
  | 192,   3  | 192,   3  | 192,   3  | 192,   3  | 192,   3
  | 192,   3  | 192,   3  | 192,   3  | 192,   3  | 192,   3
  | 192,   3  | 192,   3  | 192,   3  | 192,   3  | 192,   3
  | 192,   3  | 192,   3  | 192,   3  | 192,   3  | 192,   3
  | 192,   3  | 192,   3  | 192,   3  | 192,   3  | 192,   3
  | 192,   3  | 192,   3  | 192,   3  | 192,   3  | 192,   3

   Smooth Real Mesh
   .X.   .Y.   .Z.     .X.   .Y.   .Z.     .X.   .Y.   .Z.
   192   192   180     192   192     3       1     1    60
   Array leading dimensions ( nr1x, nr2x, nr3x )   =    192   192   180
   Local number of cell to store the grid ( nrxx ) =     110592
  | 192,   3  | 192,   3  | 192,   3  | 192,   3  | 192,   3
  | 192,   3  | 192,   3  | 192,   3  | 192,   3  | 192,   3
  | 192,   3  | 192,   3  | 192,   3  | 192,   3  | 192,   3
  | 192,   3  | 192,   3  | 192,   3  | 192,   3  | 192,   3
  | 192,   3  | 192,   3  | 192,   3  | 192,   3  | 192,   3
  | 192,   3  | 192,   3  | 192,   3  | 192,   3  | 192,   3
  | 192,   3  | 192,   3  | 192,   3  | 192,   3  | 192,   3
  | 192,   3  | 192,   3  | 192,   3  | 192,   3  | 192,   3
  | 192,   3  | 192,   3  | 192,   3  | 192,   3  | 192,   3
  | 192,   3  | 192,   3  | 192,   3  | 192,   3  | 192,   3
  | 192,   3  | 192,   3  | 192,   3  | 192,   3  | 192,   3
  | 192,   3  | 192,   3  | 192,   3  | 192,   3  | 192,   3

   Reciprocal Space Mesh
   Large Mesh
     Global(ngm_g)    MinLocal       MaxLocal      Average
        1385103          23082          23088       23085.05
   Smooth Mesh
     Global(ngms_g)   MinLocal       MaxLocal      Average
        1385103          23082          23088       23085.05
   Wave function Mesh
     Global(ngw_g)    MinLocal       MaxLocal      Average
         173178           2879           2890        2886.30

   System geometry initialization
   ibrav =    0       cell parameters read from input file

   Matrix Multiplication Performances
   ortho mmul, time for parallel driver      =   0.00023 with   49 procs

   Constraints matrixes will be distributed block like on
   ortho sub-group =    7*   7 procs

   Pseudopotentials initialization

   Common initialization

   Specie:     1
   1  indv=  1   ang. mom=  0
   2  indv=  2   ang. mom=  1
   3  indv=  2   ang. mom=  1
   4  indv=  2   ang. mom=  1

                        dion
   0.6484   0.0000
   0.0000  -1.8728

   Cell parameters from input file are used in electron mass preconditioning
   init_tpiba2=    0.03702856

   Short Legend and Physical Units in the Output
   NFI    [int]          - step index
   EKINC  [HARTREE A.U.] - kinetic energy of the fictitious electronic dynamics
   TEMPH  [K]            - Temperature of the fictitious cell dynamics
   TEMP   [K]            - Ionic temperature
   ETOT   [HARTREE A.U.] - Scf total energy (Kohn-Sham hamiltonian)
   ENTHAL [HARTREE A.U.] - Enthalpy ( ETOT + P * V )
   ECONS  [HARTREE A.U.] - Enthalpy + kinetic energy of ions and cell
   ECONT  [HARTREE A.U.] - Constant of motion for the CP lagrangian

[...]
   C      -0.46645778015523E+01     0.24237911564609E+02     0.14172945934693E+02
   C       0.11760745801916E-04     0.24237911564609E+02     0.14172945934693E+02
   C       0.46646013230439E+01     0.24237911564609E+02     0.14172945934693E+02
   C       0.93291908853419E+01     0.24237911564609E+02     0.14172945934693E+02
   C       0.13993780447640E+02     0.24237911564609E+02     0.14172945934693E+02
   C      -0.16326051707392E+02     0.28277564623777E+02     0.14172945934693E+02
   C      -0.11661462145094E+02     0.28277564623777E+02     0.14172945934693E+02
   C      -0.69968725827961E+01     0.28277564623777E+02     0.14172945934693E+02
   C      -0.23322830204980E+01     0.28277564623777E+02     0.14172945934693E+02
   C       0.23323065418000E+01     0.28277564623777E+02     0.14172945934693E+02
   C       0.69968961040981E+01     0.28277564623777E+02     0.14172945934693E+02
   C       0.11661485666396E+02     0.28277564623777E+02     0.14172945934693E+02
   C       0.23323065293342E+01     0.13465444415623E+01     0.14172945934693E+02
   C       0.69968960916323E+01     0.13465444415623E+01     0.14172945934693E+02
   C       0.11661485653930E+02     0.13465444415623E+01     0.14172945934693E+02
   C       0.16326075216228E+02     0.13465444415623E+01     0.14172945934693E+02
   C       0.20990664778526E+02     0.13465444415623E+01     0.14172945934693E+02
   C       0.25655254340825E+02     0.13465444415623E+01     0.14172945934693E+02
   C       0.30319843903123E+02     0.13465444415623E+01     0.14172945934693E+02
   C       0.11748090345174E-04     0.53861975007301E+01     0.14172945934693E+02
   C       0.46646013103884E+01     0.53861975007301E+01     0.14172945934693E+02
   C       0.93291908726865E+01     0.53861975007301E+01     0.14172945934693E+02
   C       0.13993780434985E+02     0.53861975007301E+01     0.14172945934693E+02
[...]
   C       0.20990664778147E+02     0.17505156678234E+02     0.14172945934693E+02
   C      -0.93291673768850E+01     0.21544809737401E+02     0.14172945934693E+02
   C      -0.46645778145870E+01     0.21544809737401E+02     0.14172945934693E+02
   C       0.11747711115428E-04     0.21544809737401E+02     0.14172945934693E+02
   C       0.46646013100092E+01     0.21544809737401E+02     0.14172945934693E+02
   C       0.93291908723073E+01     0.21544809737401E+02     0.14172945934693E+02
   C       0.13993780434605E+02     0.21544809737401E+02     0.14172945934693E+02
   C       0.18658369996903E+02     0.21544809737401E+02     0.14172945934693E+02
   C      -0.11661462158129E+02     0.25584462796569E+02     0.14172945934693E+02
   C      -0.69968725958308E+01     0.25584462796569E+02     0.14172945934693E+02
   C      -0.23322830335327E+01     0.25584462796569E+02     0.14172945934693E+02
   C       0.23323065287653E+01     0.25584462796569E+02     0.14172945934693E+02
   C       0.69968960910634E+01     0.25584462796569E+02     0.14172945934693E+02
   C       0.11661485653361E+02     0.25584462796569E+02     0.14172945934693E+02
   C       0.16326075215660E+02     0.25584462796569E+02     0.14172945934693E+02

   ATOMIC_VELOCITIES
   C       0.00000000000000E+00     0.00000000000000E+00     0.00000000000000E+00
   C       0.00000000000000E+00     0.00000000000000E+00     0.00000000000000E+00
   C       0.00000000000000E+00     0.00000000000000E+00     0.00000000000000E+00
   C       0.00000000000000E+00     0.00000000000000E+00     0.00000000000000E+00
   C       0.00000000000000E+00     0.00000000000000E+00     0.00000000000000E+00
   C       0.00000000000000E+00     0.00000000000000E+00     0.00000000000000E+00
   C       0.00000000000000E+00     0.00000000000000E+00     0.00000000000000E+00
   C       0.00000000000000E+00     0.00000000000000E+00     0.00000000000000E+00
   C       0.00000000000000E+00     0.00000000000000E+00     0.00000000000000E+00
   C       0.00000000000000E+00     0.00000000000000E+00     0.00000000000000E+00
   C       0.00000000000000E+00     0.00000000000000E+00     0.00000000000000E+00
   C       0.00000000000000E+00     0.00000000000000E+00     0.00000000000000E+00
   C       0.00000000000000E+00     0.00000000000000E+00     0.00000000000000E+00
   C       0.00000000000000E+00     0.00000000000000E+00     0.00000000000000E+00
   C       0.00000000000000E+00     0.00000000000000E+00     0.00000000000000E+00
   C       0.00000000000000E+00     0.00000000000000E+00     0.00000000000000E+00
   C       0.00000000000000E+00     0.00000000000000E+00     0.00000000000000E+00
   C       0.00000000000000E+00     0.00000000000000E+00     0.00000000000000E+00
   C       0.00000000000000E+00     0.00000000000000E+00     0.00000000000000E+00
   C       0.00000000000000E+00     0.00000000000000E+00     0.00000000000000E+00
   C       0.00000000000000E+00     0.00000000000000E+00     0.00000000000000E+00
   C       0.00000000000000E+00     0.00000000000000E+00     0.00000000000000E+00
   C       0.00000000000000E+00     0.00000000000000E+00     0.00000000000000E+00
   C       0.00000000000000E+00     0.00000000000000E+00     0.00000000000000E+00
   C       0.00000000000000E+00     0.00000000000000E+00     0.00000000000000E+00
   C       0.00000000000000E+00     0.00000000000000E+00     0.00000000000000E+00
   C       0.00000000000000E+00     0.00000000000000E+00     0.00000000000000E+00
   C       0.00000000000000E+00     0.00000000000000E+00     0.00000000000000E+00
   C       0.00000000000000E+00     0.00000000000000E+00     0.00000000000000E+00
   C       0.00000000000000E+00     0.00000000000000E+00     0.00000000000000E+00
   C       0.00000000000000E+00     0.00000000000000E+00     0.00000000000000E+00
   C       0.00000000000000E+00     0.00000000000000E+00     0.00000000000000E+00
   C       0.00000000000000E+00     0.00000000000000E+00     0.00000000000000E+00
   C       0.00000000000000E+00     0.00000000000000E+00     0.00000000000000E+00
   C       0.00000000000000E+00     0.00000000000000E+00     0.00000000000000E+00
   C       0.00000000000000E+00     0.00000000000000E+00     0.00000000000000E+00
   C       0.00000000000000E+00     0.00000000000000E+00     0.00000000000000E+00
   C       0.00000000000000E+00     0.00000000000000E+00     0.00000000000000E+00
   C       0.00000000000000E+00     0.00000000000000E+00     0.00000000000000E+00
   C       0.00000000000000E+00     0.00000000000000E+00     0.00000000000000E+00
   C       0.00000000000000E+00     0.00000000000000E+00     0.00000000000000E+00
   C       0.00000000000000E+00     0.00000000000000E+00     0.00000000000000E+00
   C       0.00000000000000E+00     0.00000000000000E+00     0.00000000000000E+00
   C       0.00000000000000E+00     0.00000000000000E+00     0.00000000000000E+00
   C       0.00000000000000E+00     0.00000000000000E+00     0.00000000000000E+00
   C       0.00000000000000E+00     0.00000000000000E+00     0.00000000000000E+00
   C       0.00000000000000E+00     0.00000000000000E+00     0.00000000000000E+00
   C       0.00000000000000E+00     0.00000000000000E+00     0.00000000000000E+00
   C       0.00000000000000E+00     0.00000000000000E+00     0.00000000000000E+00
   C       0.00000000000000E+00     0.00000000000000E+00     0.00000000000000E+00
   C       0.00000000000000E+00     0.00000000000000E+00     0.00000000000000E+00
   C       0.00000000000000E+00     0.00000000000000E+00     0.00000000000000E+00
   C       0.00000000000000E+00     0.00000000000000E+00     0.00000000000000E+00
   C       0.00000000000000E+00     0.00000000000000E+00     0.00000000000000E+00
   C       0.00000000000000E+00     0.00000000000000E+00     0.00000000000000E+00
   C       0.00000000000000E+00     0.00000000000000E+00     0.00000000000000E+00
   C       0.00000000000000E+00     0.00000000000000E+00     0.00000000000000E+00
   C       0.00000000000000E+00     0.00000000000000E+00     0.00000000000000E+00
   C       0.00000000000000E+00     0.00000000000000E+00     0.00000000000000E+00
   C       0.00000000000000E+00     0.00000000000000E+00     0.00000000000000E+00
[...]
   C       0.00000000000000E+00     0.00000000000000E+00     0.00000000000000E+00
   C       0.00000000000000E+00     0.00000000000000E+00     0.00000000000000E+00
   C       0.00000000000000E+00     0.00000000000000E+00     0.00000000000000E+00
   C       0.00000000000000E+00     0.00000000000000E+00     0.00000000000000E+00
   C       0.00000000000000E+00     0.00000000000000E+00     0.00000000000000E+00
   C       0.00000000000000E+00     0.00000000000000E+00     0.00000000000000E+00
   C       0.00000000000000E+00     0.00000000000000E+00     0.00000000000000E+00
   C       0.00000000000000E+00     0.00000000000000E+00     0.00000000000000E+00
   C       0.00000000000000E+00     0.00000000000000E+00     0.00000000000000E+00
   C       0.00000000000000E+00     0.00000000000000E+00     0.00000000000000E+00
   C       0.00000000000000E+00     0.00000000000000E+00     0.00000000000000E+00
   C       0.00000000000000E+00     0.00000000000000E+00     0.00000000000000E+00
   C       0.00000000000000E+00     0.00000000000000E+00     0.00000000000000E+00
   C       0.00000000000000E+00     0.00000000000000E+00     0.00000000000000E+00
   C       0.00000000000000E+00     0.00000000000000E+00     0.00000000000000E+00

   Forces acting on atoms (au):
   C      -0.87041132374121E-02    -0.87488364894720E-04    -0.20225725328665E-02
   C       0.65348850553965E-03    -0.46464128024894E-04    -0.61617356819663E-04
   C       0.58477139450294E-04     0.62051974283866E-05    -0.12303957494978E-05
   C       0.29691779861649E-04    -0.14787963085511E-04     0.31326728482028E-07
   C      -0.15842439134304E-05     0.71002394748629E-05    -0.81645361383055E-08
   C      -0.11497766066230E-04     0.14463758191941E-04    -0.13424795119472E-05
   C       0.64811520677554E-03     0.96414741515329E-04    -0.57018955956903E-04
   C      -0.14467398723587E-03    -0.48280766223824E-03    -0.58834838587032E-04
   C      -0.11725267860357E-03     0.52241293688577E-03    -0.59807985844866E-04
   C       0.57686771590590E-04    -0.19425340178006E-04     0.83918493872924E-05
   C       0.85289248171188E-05     0.40032378904914E-06    -0.71351196630659E-06
   C       0.17010446849155E-04     0.29564505794900E-04     0.12090393944398E-06
   C      -0.90269360024018E-07     0.37235679574806E-04    -0.70871655944106E-06
   C       0.47928356678566E-04    -0.11379964647198E-04     0.84424593108569E-05
   C      -0.48393455841788E-04    -0.10467604444575E-05    -0.12963812607782E-05
   C      -0.13897434266749E-04    -0.65841903322043E-05     0.84382484784466E-05
   C      -0.35375585772265E-04     0.22604681370163E-04    -0.13219870115115E-05
   C       0.25383881668108E-04     0.24138446231803E-04    -0.69941373431940E-06
   C      -0.18314997079985E-04    -0.20284268621414E-05     0.25680741856704E-07
   C      -0.18870440381259E-04     0.41594980468888E-04     0.11367624658264E-06
   C      -0.10981224878378E-04    -0.80419336763750E-05    -0.73314795856510E-06
   C      -0.38546647902679E-04     0.25192029022683E-04     0.27263778776799E-07
   C      -0.29954492399263E-05    -0.18904215326012E-04    -0.71947476525797E-06
   C       0.38197618857390E-05     0.15061711907798E-04    -0.71598844500670E-06
   C      -0.28494590281735E-04    -0.37864901606219E-04    -0.94578251346616E-08
   C      -0.17915542157699E-04     0.51384588371512E-04     0.16359448824348E-06
   C       0.23705912699888E-07     0.26821385538346E-04     0.10362979915319E-06
   C      -0.66183769922251E-04     0.12202552623306E-04     0.10510664400085E-06
   C       0.11911602120306E-04    -0.95071078754817E-05     0.34801713974579E-07
   C      -0.24332552399863E-04    -0.15911893576027E-04     0.12632222399840E-06
   C      -0.24968582217578E-04    -0.62629345682568E-05     0.72161855329892E-07
   C      -0.89512486558584E-05     0.14848027334183E-04     0.14994852551951E-06
   C       0.99962326458563E-05     0.55265006701966E-06     0.35733419629372E-07
   C      -0.61247133306733E-04    -0.19787494322422E-05    -0.73007806772458E-06
   C      -0.29101920074926E-04     0.82178653593448E-04    -0.75560624056732E-06
   C      -0.78312512739131E-04    -0.19033545226610E-04    -0.11739399670543E-05
   C       0.89558162509783E-06     0.21445700412712E-04    -0.71865013982126E-06
   C       0.31224402643317E-04    -0.14535471345748E-04     0.60977560306205E-07
   C       0.14150207655164E-04    -0.99998130765271E-05     0.53337477320743E-07
   C      -0.27664443818666E-04    -0.17826599255251E-04    -0.67865643866376E-06
   C      -0.32266360682201E-04     0.88119795590333E-04    -0.14470733995831E-05
   C       0.20174633547426E-04     0.13074038516931E-04     0.84479804855585E-05
   C      -0.12525989490942E-03    -0.34972924059144E-03    -0.61330001185673E-04
   C       0.82600845561086E-04    -0.56932471747530E-04     0.84590610281863E-05
   C       0.15548678734419E-04    -0.31405123537531E-04    -0.72811513933398E-06
   C       0.16422421258906E-04     0.43719947524878E-05     0.17430072050365E-06
   C       0.25870717805525E-04     0.33110027637150E-04    -0.73301507972469E-06
   C       0.59665149300794E-04     0.31240815151390E-04     0.83288233964487E-05
   C      -0.17121016853947E-03     0.43026769194002E-03    -0.57250917543668E-04
   C      -0.59911029344090E-04     0.18089763502249E-03     0.49159547593202E-04
   C      -0.39189230466394E-04    -0.37703538540903E-05    -0.93815958149713E-06
   C      -0.50102606525219E-05     0.16882707452132E-04    -0.45385397676157E-06
   C      -0.15080322688981E-04    -0.14055278662639E-04    -0.41918632529411E-06
   C      -0.36101136604181E-04    -0.18533028811007E-04    -0.91928396953473E-06
   C       0.52689052298318E-05    -0.22499531687085E-03     0.49273121082178E-04
   C       0.16371005760227E-02     0.12652511352511E-04     0.84332596730934E-03
   C       0.30386630983372E-02     0.82014748670913E-03     0.83247855266798E-03
   C      -0.46619191655037E-04    -0.51415011673668E-04    -0.60672344461546E-04
   C      -0.43290980565417E-04    -0.79265686388750E-05     0.27946815075743E-05
   C      -0.42341668985467E-05    -0.20960062721839E-04     0.90012135974677E-06
[...]
   C       0.55085982336144E-04     0.14962641876782E-04     0.80492735997198E-06
   C      -0.18947939830565E-05    -0.18632677770118E-04    -0.41487858595703E-06
   C       0.31731170138855E-04     0.19080186589806E-04    -0.67388726398656E-07
   C       0.25227900956536E-04     0.69792285153291E-05    -0.24457729353713E-07
   C      -0.44231366888000E-06     0.97355972725298E-05    -0.46049085156430E-06
   C       0.43176365620025E-04    -0.69216996474544E-04     0.27166800957513E-05
   C       0.62337015651250E-04    -0.94819248367666E-05     0.76488091006611E-05
   C      -0.85331761149915E-05     0.10099801610886E-05     0.28553632241546E-05
   C       0.40450748088227E-04     0.60773616211575E-04    -0.95873378060727E-06
   C      -0.23693390662728E-04     0.24667364030828E-04     0.39743616853361E-06
   C      -0.20572264440280E-04    -0.53498551442793E-05    -0.55475888329044E-07
   C       0.14336064464195E-04    -0.26835765964190E-04     0.39770457505848E-06
   C       0.53524923524299E-04    -0.30372586894277E-04    -0.87588883064863E-06
   C       0.73480385968952E-04     0.13935741893335E-04    -0.60478309182223E-04
   C       0.97914932894006E-04    -0.95983116829211E-04    -0.60916986613407E-04

   Partial temperatures (for each ionic specie)
   Species  Temp (K)   Mean Square Displacement (a.u.)
        1   0.00E+00     0.0000E+00
    192    0.000000834985332    0.0    0.00    -560.706555465668    -560.706555465668    -560.706555465668    -560.706554630683   0.0000   0.0000   0.0000   0.0000

   MAIN:          EKINC   (thr)          DETOT   (thr)       MAXFORCE   (thr)
   MAIN:   0.834985D-06  0.1D-05  0.237797D-06  0.1D-03  0.000000D+00  0.1D+11
   MAIN: convergence achieved for system relaxation

   writing restart file (with schema): ./out/graphene_68.save/

   Averaged Physical Quantities
                      accumulated      this run
   ekinc         :       35.01117      35.01117 (AU)
   ekin          :      421.87736     421.87736 (AU)
   epot          :     -948.00514    -948.00514 (AU)
   total energy  :     -515.22076    -515.22076 (AU)
   temperature   :        0.00000       0.00000 (K )
   enthalpy      :     -515.22076    -515.22076 (AU)
   econs         :     -515.22076    -515.22076 (AU)
   pressure      :       20.56981      20.56981 (Gpa)
   volume        :    26172.40970   26172.40970 (AU)

     Small boxes:

     Low-level routines:

   This run was terminated on:  19:55:55  25Jun2022

   JOB DONE.